p cnf 430 1488
-191 -38 0
-191 -126 0
-191 -156 0
-191 39 0
-191 -143 0
191 38 126 156 -39 143 0
-192 9 0
-192 -124 0
-192 -157 0
-192 -10 0
-192 -154 0
192 -9 124 157 10 154 0
-193 -66 0
-193 44 0
-193 32 0
-193 100 0
-193 -18 0
193 66 -44 -32 -100 18 0
-194 -149 0
-194 -85 0
-194 -14 0
-194 -110 0
-194 92 0
194 149 85 14 110 -92 0
-195 -65 0
-195 -160 0
-195 -130 0
-195 114 0
-195 138 0
195 65 160 130 -114 -138 0
191 192 193 194 195 0
-196 -170 0
-196 55 0
-196 -115 0
-196 3 0
-196 -86 0
196 170 -55 115 -3 86 0
-197 6 0
-197 -80 0
-197 -119 0
-197 -131 0
-197 -120 0
197 -6 80 119 131 120 0
-198 -144 0
-198 136 0
-198 73 0
-198 -90 0
-198 4 0
198 144 -136 -73 90 -4 0
-199 -62 0
-199 -135 0
-199 182 0
-199 -29 0
-199 -1 0
199 62 135 -182 29 1 0
-200 -78 0
-200 12 0
-200 9 0
-200 -21 0
-200 16 0
200 78 -12 -9 21 -16 0
196 197 198 199 200 0
-201 -114 0
-201 153 0
-201 172 0
-201 13 0
-201 143 0
201 114 -153 -172 -13 -143 0
-202 -168 0
-202 50 0
-202 82 0
-202 28 0
-202 162 0
202 168 -50 -82 -28 -162 0
-203 75 0
-203 121 0
-203 -182 0
-203 186 0
-203 -176 0
203 -75 -121 182 -186 176 0
-204 -72 0
-204 -3 0
-204 51 0
-204 -164 0
-204 48 0
204 72 3 -51 164 -48 0
-205 -26 0
-205 99 0
-205 -161 0
-205 17 0
-205 94 0
205 26 -99 161 -17 -94 0
201 202 203 204 205 0
-206 86 0
-206 -141 0
-206 -42 0
-206 -35 0
-206 87 0
206 -86 141 42 35 -87 0
-207 82 0
-207 18 0
-207 20 0
-207 24 0
-207 155 0
207 -82 -18 -20 -24 -155 0
-208 -19 0
-208 81 0
-208 27 0
-208 -99 0
-208 -177 0
208 19 -81 -27 99 177 0
-209 82 0
-209 -159 0
-209 -141 0
-209 -86 0
-209 -118 0
209 -82 159 141 86 118 0
-210 -53 0
-210 -130 0
-210 91 0
-210 -96 0
-210 -86 0
210 53 130 -91 96 86 0
206 207 208 209 210 0
-211 -98 0
-211 158 0
-211 21 0
-211 -63 0
-211 190 0
211 98 -158 -21 63 -190 0
-212 112 0
-212 -94 0
-212 -79 0
-212 144 0
-212 81 0
212 -112 94 79 -144 -81 0
-213 85 0
-213 -84 0
-213 -129 0
-213 -5 0
-213 -105 0
213 -85 84 129 5 105 0
-214 176 0
-214 13 0
-214 111 0
-214 189 0
-214 -153 0
214 -176 -13 -111 -189 153 0
-215 -71 0
-215 72 0
-215 -126 0
-215 171 0
-215 74 0
215 71 -72 126 -171 -74 0
211 212 213 214 215 0
-216 -80 0
-216 -153 0
-216 -131 0
-216 85 0
-216 -149 0
216 80 153 131 -85 149 0
-217 43 0
-217 87 0
-217 130 0
-217 -71 0
-217 -105 0
217 -43 -87 -130 71 105 0
-218 120 0
-218 -85 0
-218 -135 0
-218 -46 0
-218 27 0
218 -120 85 135 46 -27 0
-219 77 0
-219 123 0
-219 16 0
-219 152 0
-219 99 0
219 -77 -123 -16 -152 -99 0
-220 -32 0
-220 -94 0
-220 5 0
-220 149 0
-220 30 0
220 32 94 -5 -149 -30 0
216 217 218 219 220 0
-221 66 0
-221 -152 0
-221 -126 0
-221 -112 0
-221 70 0
221 -66 152 126 112 -70 0
-222 -148 0
-222 100 0
-222 17 0
-222 16 0
-222 -24 0
222 148 -100 -17 -16 24 0
-223 -125 0
-223 16 0
-223 152 0
-223 68 0
-223 71 0
223 125 -16 -152 -68 -71 0
-224 94 0
-224 -51 0
-224 116 0
-224 32 0
-224 106 0
224 -94 51 -116 -32 -106 0
-225 -11 0
-225 151 0
-225 34 0
-225 91 0
-225 150 0
225 11 -151 -34 -91 -150 0
221 222 223 224 225 0
-226 -151 0
-226 38 0
-226 107 0
-226 -18 0
-226 -100 0
226 151 -38 -107 18 100 0
-227 156 0
-227 -7 0
-227 -53 0
-227 147 0
-227 115 0
227 -156 7 53 -147 -115 0
-228 -56 0
-228 49 0
-228 22 0
-228 -62 0
-228 29 0
228 56 -49 -22 62 -29 0
-229 106 0
-229 -79 0
-229 32 0
-229 -42 0
-229 89 0
229 -106 79 -32 42 -89 0
-230 -77 0
-230 103 0
-230 172 0
-230 -43 0
-230 20 0
230 77 -103 -172 43 -20 0
226 227 228 229 230 0
-231 -92 0
-231 185 0
-231 -101 0
-231 -137 0
-231 -134 0
231 92 -185 101 137 134 0
-232 57 0
-232 -74 0
-232 -93 0
-232 -94 0
-232 150 0
232 -57 74 93 94 -150 0
-233 -118 0
-233 165 0
-233 101 0
-233 181 0
-233 -16 0
233 118 -165 -101 -181 16 0
-234 -108 0
-234 -169 0
-234 92 0
-234 114 0
-234 19 0
234 108 169 -92 -114 -19 0
-235 -117 0
-235 94 0
-235 81 0
-235 85 0
-235 160 0
235 117 -94 -81 -85 -160 0
231 232 233 234 235 0
-236 146 0
-236 157 0
-236 -23 0
-236 41 0
-236 -66 0
236 -146 -157 23 -41 66 0
-237 -28 0
-237 -90 0
-237 -145 0
-237 -135 0
-237 -127 0
237 28 90 145 135 127 0
-238 158 0
-238 -123 0
-238 147 0
-238 40 0
-238 130 0
238 -158 123 -147 -40 -130 0
-239 151 0
-239 155 0
-239 -17 0
-239 -172 0
-239 -37 0
239 -151 -155 17 172 37 0
-240 151 0
-240 168 0
-240 -114 0
-240 -41 0
-240 81 0
240 -151 -168 114 41 -81 0
236 237 238 239 240 0
-241 -70 0
-241 105 0
-241 -45 0
-241 -17 0
-241 118 0
241 70 -105 45 17 -118 0
-242 -152 0
-242 185 0
-242 71 0
-242 43 0
-242 -174 0
242 152 -185 -71 -43 174 0
-243 4 0
-243 -157 0
-243 68 0
-243 -155 0
-243 -129 0
243 -4 157 -68 155 129 0
-244 157 0
-244 114 0
-244 -44 0
-244 -184 0
-244 171 0
244 -157 -114 44 184 -171 0
-245 83 0
-245 33 0
-245 -82 0
-245 -48 0
-245 30 0
245 -83 -33 82 48 -30 0
241 242 243 244 245 0
-246 -113 0
-246 -15 0
-246 168 0
-246 159 0
-246 -22 0
246 113 15 -168 -159 22 0
-247 -23 0
-247 73 0
-247 -146 0
-247 21 0
-247 181 0
247 23 -73 146 -21 -181 0
-248 -39 0
-248 131 0
-248 -142 0
-248 56 0
-248 156 0
248 39 -131 142 -56 -156 0
-249 98 0
-249 -140 0
-249 86 0
-249 42 0
-249 -48 0
249 -98 140 -86 -42 48 0
-250 -134 0
-250 -11 0
-250 -27 0
-250 -161 0
-250 9 0
250 134 11 27 161 -9 0
246 247 248 249 250 0
-251 110 0
-251 -14 0
-251 -143 0
-251 187 0
-251 -81 0
251 -110 14 143 -187 81 0
-252 -36 0
-252 44 0
-252 2 0
-252 21 0
-252 62 0
252 36 -44 -2 -21 -62 0
-253 114 0
-253 -118 0
-253 17 0
-253 -85 0
-253 5 0
253 -114 118 -17 85 -5 0
-254 47 0
-254 -173 0
-254 -151 0
-254 -166 0
-254 -117 0
254 -47 173 151 166 117 0
-255 121 0
-255 -8 0
-255 153 0
-255 -144 0
-255 -28 0
255 -121 8 -153 144 28 0
251 252 253 254 255 0
-256 -182 0
-256 -153 0
-256 44 0
-256 39 0
-256 -168 0
256 182 153 -44 -39 168 0
-257 -31 0
-257 11 0
-257 -17 0
-257 33 0
-257 -3 0
257 31 -11 17 -33 3 0
-258 -10 0
-258 35 0
-258 -174 0
-258 -136 0
-258 -131 0
258 10 -35 174 136 131 0
-259 19 0
-259 -14 0
-259 -142 0
-259 123 0
-259 -54 0
259 -19 14 142 -123 54 0
-260 143 0
-260 146 0
-260 -68 0
-260 19 0
-260 88 0
260 -143 -146 68 -19 -88 0
256 257 258 259 260 0
-261 31 0
-261 119 0
-261 -29 0
-261 14 0
-261 56 0
261 -31 -119 29 -14 -56 0
-262 17 0
-262 147 0
-262 -123 0
-262 -96 0
-262 128 0
262 -17 -147 123 96 -128 0
-263 -190 0
-263 -152 0
-263 -1 0
-263 30 0
-263 -83 0
263 190 152 1 -30 83 0
-264 -48 0
-264 178 0
-264 127 0
-264 -129 0
-264 -59 0
264 48 -178 -127 129 59 0
-265 -37 0
-265 -89 0
-265 118 0
-265 127 0
-265 6 0
265 37 89 -118 -127 -6 0
261 262 263 264 265 0
-266 -3 0
-266 129 0
-266 21 0
-266 -87 0
-266 136 0
266 3 -129 -21 87 -136 0
-267 -56 0
-267 31 0
-267 127 0
-267 174 0
-267 -9 0
267 56 -31 -127 -174 9 0
-268 86 0
-268 10 0
-268 160 0
-268 -24 0
-268 -169 0
268 -86 -10 -160 24 169 0
-269 -73 0
-269 -29 0
-269 -25 0
-269 6 0
-269 107 0
269 73 29 25 -6 -107 0
-270 161 0
-270 -104 0
-270 -173 0
-270 65 0
-270 26 0
270 -161 104 173 -65 -26 0
266 267 268 269 270 0
-271 -29 0
-271 124 0
-271 -4 0
-271 -60 0
-271 -65 0
271 29 -124 4 60 65 0
-272 -25 0
-272 -171 0
-272 -177 0
-272 114 0
-272 83 0
272 25 171 177 -114 -83 0
-273 -154 0
-273 65 0
-273 -49 0
-273 -119 0
-273 163 0
273 154 -65 49 119 -163 0
-274 141 0
-274 153 0
-274 -3 0
-274 24 0
-274 -81 0
274 -141 -153 3 -24 81 0
-275 65 0
-275 121 0
-275 101 0
-275 -143 0
-275 179 0
275 -65 -121 -101 143 -179 0
271 272 273 274 275 0
-276 -177 0
-276 -96 0
-276 -91 0
-276 -85 0
-276 118 0
276 177 96 91 85 -118 0
-277 62 0
-277 75 0
-277 70 0
-277 -174 0
-277 -83 0
277 -62 -75 -70 174 83 0
-278 -124 0
-278 164 0
-278 30 0
-278 88 0
-278 108 0
278 124 -164 -30 -88 -108 0
-279 -114 0
-279 83 0
-279 -92 0
-279 144 0
-279 19 0
279 114 -83 92 -144 -19 0
-280 -81 0
-280 21 0
-280 -72 0
-280 -68 0
-280 120 0
280 81 -21 72 68 -120 0
276 277 278 279 280 0
-281 6 0
-281 61 0
-281 -47 0
-281 65 0
-281 -87 0
281 -6 -61 47 -65 87 0
-282 -185 0
-282 -149 0
-282 36 0
-282 41 0
-282 105 0
282 185 149 -36 -41 -105 0
-283 -27 0
-283 144 0
-283 66 0
-283 160 0
-283 -31 0
283 27 -144 -66 -160 31 0
-284 -65 0
-284 171 0
-284 14 0
-284 156 0
-284 -43 0
284 65 -171 -14 -156 43 0
-285 25 0
-285 190 0
-285 52 0
-285 126 0
-285 -67 0
285 -25 -190 -52 -126 67 0
281 282 283 284 285 0
-286 -31 0
-286 151 0
-286 131 0
-286 -156 0
-286 23 0
286 31 -151 -131 156 -23 0
-287 -1 0
-287 -141 0
-287 -103 0
-287 43 0
-287 162 0
287 1 141 103 -43 -162 0
-288 5 0
-288 43 0
-288 -24 0
-288 137 0
-288 -165 0
288 -5 -43 24 -137 165 0
-289 -66 0
-289 138 0
-289 89 0
-289 -48 0
-289 130 0
289 66 -138 -89 48 -130 0
-290 -49 0
-290 -152 0
-290 102 0
-290 -91 0
-290 -156 0
290 49 152 -102 91 156 0
286 287 288 289 290 0
-291 -184 0
-291 112 0
-291 73 0
-291 -82 0
-291 -62 0
291 184 -112 -73 82 62 0
-292 101 0
-292 165 0
-292 182 0
-292 161 0
-292 170 0
292 -101 -165 -182 -161 -170 0
-293 128 0
-293 -176 0
-293 153 0
-293 48 0
-293 -97 0
293 -128 176 -153 -48 97 0
-294 85 0
-294 -67 0
-294 27 0
-294 106 0
-294 -94 0
294 -85 67 -27 -106 94 0
-295 118 0
-295 -149 0
-295 54 0
-295 62 0
-295 -48 0
295 -118 149 -54 -62 48 0
291 292 293 294 295 0
-296 -56 0
-296 28 0
-296 183 0
-296 -154 0
-296 -42 0
296 56 -28 -183 154 42 0
-297 -174 0
-297 150 0
-297 -15 0
-297 -28 0
-297 141 0
297 174 -150 15 28 -141 0
-298 77 0
-298 -123 0
-298 120 0
-298 96 0
-298 17 0
298 -77 123 -120 -96 -17 0
-299 -86 0
-299 -163 0
-299 85 0
-299 -113 0
-299 -159 0
299 86 163 -85 113 159 0
-300 -77 0
-300 68 0
-300 75 0
-300 -96 0
-300 81 0
300 77 -68 -75 96 -81 0
296 297 298 299 300 0
-301 -167 0
-301 -90 0
-301 117 0
-301 69 0
-301 172 0
301 167 90 -117 -69 -172 0
-302 30 0
-302 78 0
-302 151 0
-302 59 0
-302 74 0
302 -30 -78 -151 -59 -74 0
-303 -32 0
-303 99 0
-303 138 0
-303 -147 0
-303 126 0
303 32 -99 -138 147 -126 0
-304 -21 0
-304 -127 0
-304 147 0
-304 124 0
-304 -80 0
304 21 127 -147 -124 80 0
-305 6 0
-305 68 0
-305 181 0
-305 -156 0
-305 105 0
305 -6 -68 -181 156 -105 0
301 302 303 304 305 0
-306 110 0
-306 -166 0
-306 -116 0
-306 18 0
-306 -48 0
306 -110 166 116 -18 48 0
-307 101 0
-307 27 0
-307 -58 0
-307 -138 0
-307 -99 0
307 -101 -27 58 138 99 0
-308 -75 0
-308 158 0
-308 -102 0
-308 110 0
-308 101 0
308 75 -158 102 -110 -101 0
-309 -18 0
-309 -66 0
-309 189 0
-309 30 0
-309 122 0
309 18 66 -189 -30 -122 0
-310 -49 0
-310 172 0
-310 46 0
-310 116 0
-310 123 0
310 49 -172 -46 -116 -123 0
306 307 308 309 310 0
-311 173 0
-311 -7 0
-311 -81 0
-311 91 0
-311 67 0
311 -173 7 81 -91 -67 0
-312 113 0
-312 -31 0
-312 100 0
-312 -111 0
-312 -59 0
312 -113 31 -100 111 59 0
-313 57 0
-313 -112 0
-313 4 0
-313 -123 0
-313 188 0
313 -57 112 -4 123 -188 0
-314 -27 0
-314 14 0
-314 -99 0
-314 16 0
-314 -97 0
314 27 -14 99 -16 97 0
-315 117 0
-315 91 0
-315 170 0
-315 166 0
-315 35 0
315 -117 -91 -170 -166 -35 0
311 312 313 314 315 0
-316 10 0
-316 -40 0
-316 128 0
-316 124 0
-316 77 0
316 -10 40 -128 -124 -77 0
-317 -106 0
-317 -187 0
-317 -173 0
-317 -65 0
-317 -116 0
317 106 187 173 65 116 0
-318 102 0
-318 -174 0
-318 184 0
-318 -152 0
-318 -29 0
318 -102 174 -184 152 29 0
-319 170 0
-319 25 0
-319 121 0
-319 147 0
-319 -132 0
319 -170 -25 -121 -147 132 0
-320 129 0
-320 131 0
-320 -61 0
-320 51 0
-320 -153 0
320 -129 -131 61 -51 153 0
316 317 318 319 320 0
-321 9 0
-321 -170 0
-321 23 0
-321 -159 0
-321 163 0
321 -9 170 -23 159 -163 0
-322 66 0
-322 147 0
-322 -118 0
-322 145 0
-322 11 0
322 -66 -147 118 -145 -11 0
-323 183 0
-323 -119 0
-323 38 0
-323 -107 0
-323 69 0
323 -183 119 -38 107 -69 0
-324 5 0
-324 93 0
-324 21 0
-324 147 0
-324 76 0
324 -5 -93 -21 -147 -76 0
-325 84 0
-325 -15 0
-325 27 0
-325 -141 0
-325 46 0
325 -84 15 -27 141 -46 0
321 322 323 324 325 0
-326 7 0
-326 -176 0
-326 104 0
-326 -125 0
-326 69 0
326 -7 176 -104 125 -69 0
-327 -5 0
-327 33 0
-327 97 0
-327 -76 0
-327 -151 0
327 5 -33 -97 76 151 0
-328 -16 0
-328 -137 0
-328 -182 0
-328 17 0
-328 -123 0
328 16 137 182 -17 123 0
-329 -74 0
-329 78 0
-329 -31 0
-329 -55 0
-329 126 0
329 74 -78 31 55 -126 0
-330 61 0
-330 136 0
-330 -81 0
-330 190 0
-330 -84 0
330 -61 -136 81 -190 84 0
326 327 328 329 330 0
-331 50 0
-331 -29 0
-331 -183 0
-331 91 0
-331 -47 0
331 -50 29 183 -91 47 0
-332 -68 0
-332 29 0
-332 24 0
-332 -90 0
-332 88 0
332 68 -29 -24 90 -88 0
-333 -46 0
-333 -57 0
-333 -41 0
-333 85 0
-333 137 0
333 46 57 41 -85 -137 0
-334 -67 0
-334 -188 0
-334 34 0
-334 -13 0
-334 -129 0
334 67 188 -34 13 129 0
-335 139 0
-335 -31 0
-335 158 0
-335 47 0
-335 -166 0
335 -139 31 -158 -47 166 0
331 332 333 334 335 0
-336 -6 0
-336 -27 0
-336 -35 0
-336 -70 0
-336 -141 0
336 6 27 35 70 141 0
-337 132 0
-337 -67 0
-337 -123 0
-337 -59 0
-337 164 0
337 -132 67 123 59 -164 0
-338 61 0
-338 -69 0
-338 23 0
-338 55 0
-338 190 0
338 -61 69 -23 -55 -190 0
-339 91 0
-339 -14 0
-339 155 0
-339 80 0
-339 55 0
339 -91 14 -155 -80 -55 0
-340 -43 0
-340 17 0
-340 -94 0
-340 -36 0
-340 82 0
340 43 -17 94 36 -82 0
336 337 338 339 340 0
-341 -59 0
-341 185 0
-341 61 0
-341 -161 0
-341 -71 0
341 59 -185 -61 161 71 0
-342 -8 0
-342 -72 0
-342 69 0
-342 -62 0
-342 106 0
342 8 72 -69 62 -106 0
-343 -123 0
-343 129 0
-343 58 0
-343 11 0
-343 137 0
343 123 -129 -58 -11 -137 0
-344 -107 0
-344 79 0
-344 -140 0
-344 180 0
-344 173 0
344 107 -79 140 -180 -173 0
-345 44 0
-345 168 0
-345 -80 0
-345 181 0
-345 -49 0
345 -44 -168 80 -181 49 0
341 342 343 344 345 0
-346 -9 0
-346 145 0
-346 190 0
-346 135 0
-346 -69 0
346 9 -145 -190 -135 69 0
-347 -24 0
-347 111 0
-347 -21 0
-347 149 0
-347 20 0
347 24 -111 21 -149 -20 0
-348 -23 0
-348 57 0
-348 14 0
-348 111 0
-348 187 0
348 23 -57 -14 -111 -187 0
-349 79 0
-349 -2 0
-349 -29 0
-349 179 0
-349 188 0
349 -79 2 29 -179 -188 0
-350 149 0
-350 21 0
-350 -117 0
-350 -65 0
-350 -119 0
350 -149 -21 117 65 119 0
346 347 348 349 350 0
-351 92 0
-351 61 0
-351 99 0
-351 83 0
-351 43 0
351 -92 -61 -99 -83 -43 0
-352 -111 0
-352 -140 0
-352 -64 0
-352 16 0
-352 -184 0
352 111 140 64 -16 184 0
-353 -28 0
-353 -125 0
-353 110 0
-353 154 0
-353 -112 0
353 28 125 -110 -154 112 0
-354 -12 0
-354 103 0
-354 -112 0
-354 186 0
-354 118 0
354 12 -103 112 -186 -118 0
-355 184 0
-355 106 0
-355 78 0
-355 125 0
-355 -167 0
355 -184 -106 -78 -125 167 0
351 352 353 354 355 0
-356 31 0
-356 30 0
-356 -80 0
-356 181 0
-356 164 0
356 -31 -30 80 -181 -164 0
-357 -3 0
-357 101 0
-357 -170 0
-357 93 0
-357 -115 0
357 3 -101 170 -93 115 0
-358 153 0
-358 -56 0
-358 6 0
-358 -13 0
-358 -38 0
358 -153 56 -6 13 38 0
-359 -154 0
-359 -64 0
-359 -30 0
-359 -127 0
-359 -21 0
359 154 64 30 127 21 0
-360 -64 0
-360 -54 0
-360 -99 0
-360 -174 0
-360 -37 0
360 64 54 99 174 37 0
356 357 358 359 360 0
-361 -153 0
-361 93 0
-361 -94 0
-361 -185 0
-361 -182 0
361 153 -93 94 185 182 0
-362 -88 0
-362 -56 0
-362 107 0
-362 4 0
-362 80 0
362 88 56 -107 -4 -80 0
-363 -12 0
-363 35 0
-363 156 0
-363 70 0
-363 131 0
363 12 -35 -156 -70 -131 0
-364 -40 0
-364 -131 0
-364 27 0
-364 42 0
-364 -30 0
364 40 131 -27 -42 30 0
-365 -170 0
-365 76 0
-365 99 0
-365 -93 0
-365 -41 0
365 170 -76 -99 93 41 0
361 362 363 364 365 0
-366 -20 0
-366 22 0
-366 -43 0
-366 51 0
-366 -6 0
366 20 -22 43 -51 6 0
-367 -177 0
-367 -175 0
-367 -152 0
-367 -79 0
-367 182 0
367 177 175 152 79 -182 0
-368 -76 0
-368 -102 0
-368 20 0
-368 89 0
-368 14 0
368 76 102 -20 -89 -14 0
-369 -141 0
-369 -37 0
-369 -177 0
-369 189 0
-369 30 0
369 141 37 177 -189 -30 0
-370 112 0
-370 -104 0
-370 -56 0
-370 157 0
-370 171 0
370 -112 104 56 -157 -171 0
366 367 368 369 370 0
-371 -63 0
-371 54 0
-371 179 0
-371 -2 0
-371 -111 0
371 63 -54 -179 2 111 0
-372 -98 0
-372 -138 0
-372 107 0
-372 -149 0
-372 -171 0
372 98 138 -107 149 171 0
-373 -97 0
-373 -40 0
-373 39 0
-373 156 0
-373 -22 0
373 97 40 -39 -156 22 0
-374 49 0
-374 108 0
-374 -70 0
-374 -153 0
-374 -157 0
374 -49 -108 70 153 157 0
-375 -32 0
-375 176 0
-375 66 0
-375 186 0
-375 -2 0
375 32 -176 -66 -186 2 0
371 372 373 374 375 0
-376 -170 0
-376 -47 0
-376 41 0
-376 108 0
-376 114 0
376 170 47 -41 -108 -114 0
-377 -28 0
-377 45 0
-377 -88 0
-377 -18 0
-377 -48 0
377 28 -45 88 18 48 0
-378 -80 0
-378 -2 0
-378 -126 0
-378 -38 0
-378 -36 0
378 80 2 126 38 36 0
-379 184 0
-379 -181 0
-379 125 0
-379 -91 0
-379 -37 0
379 -184 181 -125 91 37 0
-380 -23 0
-380 51 0
-380 149 0
-380 117 0
-380 177 0
380 23 -51 -149 -117 -177 0
376 377 378 379 380 0
-381 46 0
-381 135 0
-381 36 0
-381 168 0
-381 82 0
381 -46 -135 -36 -168 -82 0
-382 -134 0
-382 -36 0
-382 98 0
-382 155 0
-382 -170 0
382 134 36 -98 -155 170 0
-383 -77 0
-383 185 0
-383 -120 0
-383 -83 0
-383 180 0
383 77 -185 120 83 -180 0
-384 -42 0
-384 159 0
-384 19 0
-384 -38 0
-384 -27 0
384 42 -159 -19 38 27 0
-385 -154 0
-385 -102 0
-385 -164 0
-385 -177 0
-385 -131 0
385 154 102 164 177 131 0
381 382 383 384 385 0
-386 1 0
-386 163 0
-386 86 0
-386 -127 0
-386 -95 0
386 -1 -163 -86 127 95 0
-387 -1 0
-387 -60 0
-387 -40 0
-387 91 0
-387 7 0
387 1 60 40 -91 -7 0
-388 10 0
-388 -146 0
-388 172 0
-388 -64 0
-388 49 0
388 -10 146 -172 64 -49 0
-389 -72 0
-389 -46 0
-389 -70 0
-389 -24 0
-389 74 0
389 72 46 70 24 -74 0
-390 -47 0
-390 4 0
-390 167 0
-390 -183 0
-390 63 0
390 47 -4 -167 183 -63 0
386 387 388 389 390 0
-391 -52 0
-391 -107 0
-391 -81 0
-391 -130 0
-391 49 0
391 52 107 81 130 -49 0
-392 -55 0
-392 48 0
-392 56 0
-392 -153 0
-392 126 0
392 55 -48 -56 153 -126 0
-393 49 0
-393 162 0
-393 -78 0
-393 13 0
-393 -68 0
393 -49 -162 78 -13 68 0
-394 164 0
-394 -125 0
-394 96 0
-394 -32 0
-394 158 0
394 -164 125 -96 32 -158 0
-395 -142 0
-395 -134 0
-395 135 0
-395 57 0
-395 160 0
395 142 134 -135 -57 -160 0
391 392 393 394 395 0
-396 33 0
-396 126 0
-396 109 0
-396 88 0
-396 79 0
396 -33 -126 -109 -88 -79 0
-397 -151 0
-397 -161 0
-397 42 0
-397 62 0
-397 174 0
397 151 161 -42 -62 -174 0
-398 -111 0
-398 -131 0
-398 127 0
-398 -8 0
-398 -180 0
398 111 131 -127 8 180 0
-399 -20 0
-399 94 0
-399 -107 0
-399 12 0
-399 -1 0
399 20 -94 107 -12 1 0
-400 36 0
-400 -32 0
-400 126 0
-400 -15 0
-400 138 0
400 -36 32 -126 15 -138 0
396 397 398 399 400 0
-401 -154 0
-401 86 0
-401 29 0
-401 143 0
-401 174 0
401 154 -86 -29 -143 -174 0
-402 -32 0
-402 150 0
-402 175 0
-402 144 0
-402 -8 0
402 32 -150 -175 -144 8 0
-403 -34 0
-403 77 0
-403 -94 0
-403 82 0
-403 -80 0
403 34 -77 94 -82 80 0
-404 103 0
-404 108 0
-404 -171 0
-404 129 0
-404 -22 0
404 -103 -108 171 -129 22 0
-405 -66 0
-405 -14 0
-405 -9 0
-405 94 0
-405 89 0
405 66 14 9 -94 -89 0
401 402 403 404 405 0
-406 140 0
-406 -66 0
-406 76 0
-406 96 0
-406 98 0
406 -140 66 -76 -96 -98 0
-407 -75 0
-407 51 0
-407 -92 0
-407 -166 0
-407 -17 0
407 75 -51 92 166 17 0
-408 94 0
-408 64 0
-408 -14 0
-408 181 0
-408 155 0
408 -94 -64 14 -181 -155 0
-409 146 0
-409 124 0
-409 -19 0
-409 86 0
-409 133 0
409 -146 -124 19 -86 -133 0
-410 -70 0
-410 -159 0
-410 -31 0
-410 92 0
-410 -19 0
410 70 159 31 -92 19 0
406 407 408 409 410 0
-411 156 0
-411 79 0
-411 -121 0
-411 -16 0
-411 -162 0
411 -156 -79 121 16 162 0
-412 15 0
-412 -59 0
-412 83 0
-412 142 0
-412 132 0
412 -15 59 -83 -142 -132 0
-413 -83 0
-413 -142 0
-413 98 0
-413 110 0
-413 149 0
413 83 142 -98 -110 -149 0
-414 149 0
-414 5 0
-414 -161 0
-414 70 0
-414 -29 0
414 -149 -5 161 -70 29 0
-415 -97 0
-415 95 0
-415 19 0
-415 6 0
-415 140 0
415 97 -95 -19 -6 -140 0
411 412 413 414 415 0
-416 -74 0
-416 65 0
-416 40 0
-416 61 0
-416 51 0
416 74 -65 -40 -61 -51 0
-417 -39 0
-417 -130 0
-417 120 0
-417 162 0
-417 -109 0
417 39 130 -120 -162 109 0
-418 32 0
-418 142 0
-418 118 0
-418 -152 0
-418 67 0
418 -32 -142 -118 152 -67 0
-419 174 0
-419 -130 0
-419 40 0
-419 35 0
-419 153 0
419 -174 130 -40 -35 -153 0
-420 59 0
-420 93 0
-420 -98 0
-420 112 0
-420 -83 0
420 -59 -93 98 -112 83 0
416 417 418 419 420 0
-421 50 0
-421 170 0
-421 -150 0
-421 -29 0
-421 -165 0
421 -50 -170 150 29 165 0
-422 102 0
-422 181 0
-422 -17 0
-422 119 0
-422 14 0
422 -102 -181 17 -119 -14 0
-423 182 0
-423 -145 0
-423 -66 0
-423 75 0
-423 25 0
423 -182 145 66 -75 -25 0
-424 -88 0
-424 -49 0
-424 170 0
-424 -23 0
-424 61 0
424 88 49 -170 23 -61 0
-425 -20 0
-425 91 0
-425 -89 0
-425 135 0
-425 -190 0
425 20 -91 89 -135 190 0
421 422 423 424 425 0
-426 87 0
-426 -172 0
-426 -178 0
-426 21 0
-426 139 0
426 -87 172 178 -21 -139 0
-427 139 0
-427 -120 0
-427 -176 0
-427 8 0
-427 -115 0
427 -139 120 176 -8 115 0
-428 12 0
-428 14 0
-428 -80 0
-428 -166 0
-428 126 0
428 -12 -14 80 166 -126 0
-429 170 0
-429 152 0
-429 77 0
-429 -97 0
-429 190 0
429 -170 -152 -77 97 -190 0
-430 -132 0
-430 8 0
-430 -162 0
-430 14 0
-430 148 0
430 132 -8 162 -14 -148 0
426 427 428 429 430 0
